(set-option :produce-unsat-cores true) ; enable generation of unsat cores
(set-option :produce-models true) ; enable model generation
(set-logic ALL)
(declare-sort var3383 0)
(declare-sort var3868 0)
(declare-sort void 0)
(declare-sort Iterator 0)
(declare-sort ClassObject 0)
(declare-fun reset/-2086511635 (var3383) void)
(declare-fun debug/-902275698 (var3383 String) void)
(declare-fun String-init () String)
(define-fun <init>/1968657023 () String "")
(define-fun append/672562846 ((s String) (tail String)) String (str.++ s tail))
(define-fun toString/-2075883882 ((s String)) String s)
(declare-fun escapeComments/717252223 (var3383 String) String)
(declare-fun balanceHTML/899129385 (var3383 String) String)
(declare-fun checkTags/-330382161 (var3383 String) String)
(declare-fun processRemoveBlanks/-1430404738 (var3383 String) String)
(declare-fun validateEntities/-29289123 (var3383 String) String)
(declare-const null-var3383 var3383)
(declare-const null-String String)
(declare-const var168 var3383) ; Statement: r0 := @this: cn.hutool.http.HTMLFilter 
(assert (not (= var168 null-var3383)))
(declare-const var3555 String) ; Statement: r1 := @parameter0: java.lang.String 
(assert (not (= var3555 null-String)))
(assert true)
;(assert (reset/-2086511635 var168)) ; Statement: specialinvoke r0.<cn.hutool.http.HTMLFilter: void reset()>() 

(declare-const var168!1 var3383)
(assert true)
;(assert (debug/-902275698 var168!1 "************************************************")) ; Statement: specialinvoke r0.<cn.hutool.http.HTMLFilter: void debug(java.lang.String)>("************************************************") 

(declare-const var168!2 var3383)
(declare-const var118 String)
(define-const var1702 String String-init) ; Statement: $r2 = new java.lang.StringBuilder 
(assert true)
;(assert (<init>/1968657023 var1702)) ; Statement: specialinvoke $r2.<java.lang.StringBuilder: void <init>()>() 
(declare-const var1702!1 String)
(assert (= var1702!1 ""))
(assert true)
(define-const var3337 String (append/672562846 var1702!1 "              INPUT: ")) ; Statement: $r3 = virtualinvoke $r2.<java.lang.StringBuilder: java.lang.StringBuilder append(java.lang.String)>("              INPUT: ") 
(declare-const var1702!2 String)
(assert (= var1702!2 (str.++ var1702!1 "              INPUT: ")))
(assert true)
(define-const var1698 String (append/672562846 var3337 var3555)) ; Statement: $r4 = virtualinvoke $r3.<java.lang.StringBuilder: java.lang.StringBuilder append(java.lang.String)>(r1) 
(declare-const var3337!1 String)
(assert (= var3337!1 (str.++ var3337 var3555)))
(assert true)
(define-const var3055 String (toString/-2075883882 var1698)) ; Statement: $r5 = virtualinvoke $r4.<java.lang.StringBuilder: java.lang.String toString()>() 
(assert true)
;(assert (debug/-902275698 var168!2 var3055)) ; Statement: specialinvoke r0.<cn.hutool.http.HTMLFilter: void debug(java.lang.String)>($r5) 

(declare-const var168!3 var3383)
(declare-const var3055!1 String)
(assert true)
(define-const var2093 String (escapeComments/717252223 var168!3 var3555)) ; Statement: r26 = specialinvoke r0.<cn.hutool.http.HTMLFilter: java.lang.String escapeComments(java.lang.String)>(r1) 
(define-const var330 String String-init) ; Statement: $r6 = new java.lang.StringBuilder 
(assert true)
;(assert (<init>/1968657023 var330)) ; Statement: specialinvoke $r6.<java.lang.StringBuilder: void <init>()>() 
(declare-const var330!1 String)
(assert (= var330!1 ""))
(assert true)
(define-const var2475 String (append/672562846 var330!1 "     escapeComments: ")) ; Statement: $r7 = virtualinvoke $r6.<java.lang.StringBuilder: java.lang.StringBuilder append(java.lang.String)>("     escapeComments: ") 
(declare-const var330!2 String)
(assert (= var330!2 (str.++ var330!1 "     escapeComments: ")))
(assert true)
(define-const var666 String (append/672562846 var2475 var2093)) ; Statement: $r8 = virtualinvoke $r7.<java.lang.StringBuilder: java.lang.StringBuilder append(java.lang.String)>(r26) 
(declare-const var2475!1 String)
(assert (= var2475!1 (str.++ var2475 var2093)))
(assert true)
(define-const var974 String (toString/-2075883882 var666)) ; Statement: $r9 = virtualinvoke $r8.<java.lang.StringBuilder: java.lang.String toString()>() 
(assert true)
;(assert (debug/-902275698 var168!3 var974)) ; Statement: specialinvoke r0.<cn.hutool.http.HTMLFilter: void debug(java.lang.String)>($r9) 

(declare-const var168!4 var3383)
(declare-const var974!1 String)
(assert true)
(define-const var3430 String (balanceHTML/899129385 var168!4 var2093)) ; Statement: r27 = specialinvoke r0.<cn.hutool.http.HTMLFilter: java.lang.String balanceHTML(java.lang.String)>(r26) 
(define-const var890 String String-init) ; Statement: $r10 = new java.lang.StringBuilder 
(assert true)
;(assert (<init>/1968657023 var890)) ; Statement: specialinvoke $r10.<java.lang.StringBuilder: void <init>()>() 
(declare-const var890!1 String)
(assert (= var890!1 ""))
(assert true)
(define-const var860 String (append/672562846 var890!1 "        balanceHTML: ")) ; Statement: $r11 = virtualinvoke $r10.<java.lang.StringBuilder: java.lang.StringBuilder append(java.lang.String)>("        balanceHTML: ") 
(declare-const var890!2 String)
(assert (= var890!2 (str.++ var890!1 "        balanceHTML: ")))
(assert true)
(define-const var2364 String (append/672562846 var860 var3430)) ; Statement: $r12 = virtualinvoke $r11.<java.lang.StringBuilder: java.lang.StringBuilder append(java.lang.String)>(r27) 
(declare-const var860!1 String)
(assert (= var860!1 (str.++ var860 var3430)))
(assert true)
(define-const var2668 String (toString/-2075883882 var2364)) ; Statement: $r13 = virtualinvoke $r12.<java.lang.StringBuilder: java.lang.String toString()>() 
(assert true)
;(assert (debug/-902275698 var168!4 var2668)) ; Statement: specialinvoke r0.<cn.hutool.http.HTMLFilter: void debug(java.lang.String)>($r13) 

(declare-const var168!5 var3383)
(declare-const var2668!1 String)
(assert true)
(define-const var1557 String (checkTags/-330382161 var168!5 var3430)) ; Statement: r28 = specialinvoke r0.<cn.hutool.http.HTMLFilter: java.lang.String checkTags(java.lang.String)>(r27) 
(define-const var1870 String String-init) ; Statement: $r14 = new java.lang.StringBuilder 
(assert true)
;(assert (<init>/1968657023 var1870)) ; Statement: specialinvoke $r14.<java.lang.StringBuilder: void <init>()>() 
(declare-const var1870!1 String)
(assert (= var1870!1 ""))
(assert true)
(define-const var3329 String (append/672562846 var1870!1 "          checkTags: ")) ; Statement: $r15 = virtualinvoke $r14.<java.lang.StringBuilder: java.lang.StringBuilder append(java.lang.String)>("          checkTags: ") 
(declare-const var1870!2 String)
(assert (= var1870!2 (str.++ var1870!1 "          checkTags: ")))
(assert true)
(define-const var1181 String (append/672562846 var3329 var1557)) ; Statement: $r16 = virtualinvoke $r15.<java.lang.StringBuilder: java.lang.StringBuilder append(java.lang.String)>(r28) 
(declare-const var3329!1 String)
(assert (= var3329!1 (str.++ var3329 var1557)))
(assert true)
(define-const var3808 String (toString/-2075883882 var1181)) ; Statement: $r17 = virtualinvoke $r16.<java.lang.StringBuilder: java.lang.String toString()>() 
(assert true)
;(assert (debug/-902275698 var168!5 var3808)) ; Statement: specialinvoke r0.<cn.hutool.http.HTMLFilter: void debug(java.lang.String)>($r17) 

(declare-const var168!6 var3383)
(declare-const var3808!1 String)
(assert true)
(define-const var650 String (processRemoveBlanks/-1430404738 var168!6 var1557)) ; Statement: r29 = specialinvoke r0.<cn.hutool.http.HTMLFilter: java.lang.String processRemoveBlanks(java.lang.String)>(r28) 
(define-const var3625 String String-init) ; Statement: $r18 = new java.lang.StringBuilder 
(assert true)
;(assert (<init>/1968657023 var3625)) ; Statement: specialinvoke $r18.<java.lang.StringBuilder: void <init>()>() 
(declare-const var3625!1 String)
(assert (= var3625!1 ""))
(assert true)
(define-const var3222 String (append/672562846 var3625!1 "processRemoveBlanks: ")) ; Statement: $r19 = virtualinvoke $r18.<java.lang.StringBuilder: java.lang.StringBuilder append(java.lang.String)>("processRemoveBlanks: ") 
(declare-const var3625!2 String)
(assert (= var3625!2 (str.++ var3625!1 "processRemoveBlanks: ")))
(assert true)
(define-const var255 String (append/672562846 var3222 var650)) ; Statement: $r20 = virtualinvoke $r19.<java.lang.StringBuilder: java.lang.StringBuilder append(java.lang.String)>(r29) 
(declare-const var3222!1 String)
(assert (= var3222!1 (str.++ var3222 var650)))
(assert true)
(define-const var3293 String (toString/-2075883882 var255)) ; Statement: $r21 = virtualinvoke $r20.<java.lang.StringBuilder: java.lang.String toString()>() 
(assert true)
;(assert (debug/-902275698 var168!6 var3293)) ; Statement: specialinvoke r0.<cn.hutool.http.HTMLFilter: void debug(java.lang.String)>($r21) 

(declare-const var168!7 var3383)
(declare-const var3293!1 String)
(assert true)
(define-const var3182 String (validateEntities/-29289123 var168!7 var650)) ; Statement: r30 = specialinvoke r0.<cn.hutool.http.HTMLFilter: java.lang.String validateEntities(java.lang.String)>(r29) 
(define-const var3310 String String-init) ; Statement: $r22 = new java.lang.StringBuilder 
(assert true)
;(assert (<init>/1968657023 var3310)) ; Statement: specialinvoke $r22.<java.lang.StringBuilder: void <init>()>() 
(declare-const var3310!1 String)
(assert (= var3310!1 ""))
(assert true)
(define-const var2810 String (append/672562846 var3310!1 "    validateEntites: ")) ; Statement: $r23 = virtualinvoke $r22.<java.lang.StringBuilder: java.lang.StringBuilder append(java.lang.String)>("    validateEntites: ") 
(declare-const var3310!2 String)
(assert (= var3310!2 (str.++ var3310!1 "    validateEntites: ")))
(assert true)
(define-const var765 String (append/672562846 var2810 var3182)) ; Statement: $r24 = virtualinvoke $r23.<java.lang.StringBuilder: java.lang.StringBuilder append(java.lang.String)>(r30) 
(declare-const var2810!1 String)
(assert (= var2810!1 (str.++ var2810 var3182)))
(assert true)
(define-const var712 String (toString/-2075883882 var765)) ; Statement: $r25 = virtualinvoke $r24.<java.lang.StringBuilder: java.lang.String toString()>() 
(assert true)
;(assert (debug/-902275698 var168!7 var712)) ; Statement: specialinvoke r0.<cn.hutool.http.HTMLFilter: void debug(java.lang.String)>($r25) 

(declare-const var168!8 var3383)
(declare-const var712!1 String)
(assert true)
;(assert (debug/-902275698 var168!8 "************************************************\n\n")) ; Statement: specialinvoke r0.<cn.hutool.http.HTMLFilter: void debug(java.lang.String)>("************************************************\n\n") 

(declare-const var168!9 var3383)
(declare-const var36 String)
 ; Statement: return r30 
(check-sat)
(get-model)
(get-unsat-core)
; {reset/-2086511635=([cn.hutool.http.HTMLFilter], void), debug/-902275698=([cn.hutool.http.HTMLFilter, java.lang.String], void), String-init=([], java.lang.StringBuilder), <init>/1968657023=([java.lang.StringBuilder], void), append/672562846=([java.lang.StringBuilder, java.lang.String], java.lang.StringBuilder), toString/-2075883882=([java.lang.StringBuilder], java.lang.String), escapeComments/717252223=([cn.hutool.http.HTMLFilter, java.lang.String], java.lang.String), balanceHTML/899129385=([cn.hutool.http.HTMLFilter, java.lang.String], java.lang.String), checkTags/-330382161=([cn.hutool.http.HTMLFilter, java.lang.String], java.lang.String), processRemoveBlanks/-1430404738=([cn.hutool.http.HTMLFilter, java.lang.String], java.lang.String), validateEntities/-29289123=([cn.hutool.http.HTMLFilter, java.lang.String], java.lang.String)}
; {var3383=cn.hutool.http.HTMLFilter, var168=r0, var3555=r1, var3868=null_type, var118="************************************************", var1702=$r2, var3337=$r3, var1698=$r4, var3055=$r5, var2093=r26, var330=$r6, var2475=$r7, var666=$r8, var974=$r9, var3430=r27, var890=$r10, var860=$r11, var2364=$r12, var2668=$r13, var1557=r28, var1870=$r14, var3329=$r15, var1181=$r16, var3808=$r17, var650=r29, var3625=$r18, var3222=$r19, var255=$r20, var3293=$r21, var3182=r30, var3310=$r22, var2810=$r23, var765=$r24, var712=$r25, var36="************************************************\n\n"}
; {cn.hutool.http.HTMLFilter=var3383, r0=var168, r1=var3555, null_type=var3868, "************************************************"=var118, $r2=var1702, $r3=var3337, $r4=var1698, $r5=var3055, r26=var2093, $r6=var330, $r7=var2475, $r8=var666, $r9=var974, r27=var3430, $r10=var890, $r11=var860, $r12=var2364, $r13=var2668, r28=var1557, $r14=var1870, $r15=var3329, $r16=var1181, $r17=var3808, r29=var650, $r18=var3625, $r19=var3222, $r20=var255, $r21=var3293, r30=var3182, $r22=var3310, $r23=var2810, $r24=var765, $r25=var712, "************************************************\n\n"=var36}
;seq <java.lang.StringBuilder: void <init>()>;	<java.lang.StringBuilder: java.lang.StringBuilder append(java.lang.String)>;	<java.lang.StringBuilder: java.lang.StringBuilder append(java.lang.String)>;	<java.lang.StringBuilder: java.lang.String toString()>;	<java.lang.StringBuilder: void <init>()>;	<java.lang.StringBuilder: java.lang.StringBuilder append(java.lang.String)>;	<java.lang.StringBuilder: java.lang.StringBuilder append(java.lang.String)>;	<java.lang.StringBuilder: java.lang.String toString()>;	<java.lang.StringBuilder: void <init>()>;	<java.lang.StringBuilder: java.lang.StringBuilder append(java.lang.String)>;	<java.lang.StringBuilder: java.lang.StringBuilder append(java.lang.String)>;	<java.lang.StringBuilder: java.lang.String toString()>;	<java.lang.StringBuilder: void <init>()>;	<java.lang.StringBuilder: java.lang.StringBuilder append(java.lang.String)>;	<java.lang.StringBuilder: java.lang.StringBuilder append(java.lang.String)>;	<java.lang.StringBuilder: java.lang.String toString()>;	<java.lang.StringBuilder: void <init>()>;	<java.lang.StringBuilder: java.lang.StringBuilder append(java.lang.String)>;	<java.lang.StringBuilder: java.lang.StringBuilder append(java.lang.String)>;	<java.lang.StringBuilder: java.lang.String toString()>;	<java.lang.StringBuilder: void <init>()>;	<java.lang.StringBuilder: java.lang.StringBuilder append(java.lang.String)>;	<java.lang.StringBuilder: java.lang.StringBuilder append(java.lang.String)>;	<java.lang.StringBuilder: java.lang.String toString()>
;cnt {"<java.lang.StringBuilder: void <init>()>": 6,"<java.lang.StringBuilder: java.lang.StringBuilder append(java.lang.String)>": 12,"<java.lang.StringBuilder: java.lang.String toString()>": 6}
;stmts r0 := @this: cn.hutool.http.HTMLFilter;	r1 := @parameter0: java.lang.String;	specialinvoke r0.<cn.hutool.http.HTMLFilter: void reset()>();	specialinvoke r0.<cn.hutool.http.HTMLFilter: void debug(java.lang.String)>("************************************************");	$r2 = new java.lang.StringBuilder;	specialinvoke $r2.<java.lang.StringBuilder: void <init>()>();	$r3 = virtualinvoke $r2.<java.lang.StringBuilder: java.lang.StringBuilder append(java.lang.String)>("              INPUT: ");	$r4 = virtualinvoke $r3.<java.lang.StringBuilder: java.lang.StringBuilder append(java.lang.String)>(r1);	$r5 = virtualinvoke $r4.<java.lang.StringBuilder: java.lang.String toString()>();	specialinvoke r0.<cn.hutool.http.HTMLFilter: void debug(java.lang.String)>($r5);	r26 = specialinvoke r0.<cn.hutool.http.HTMLFilter: java.lang.String escapeComments(java.lang.String)>(r1);	$r6 = new java.lang.StringBuilder;	specialinvoke $r6.<java.lang.StringBuilder: void <init>()>();	$r7 = virtualinvoke $r6.<java.lang.StringBuilder: java.lang.StringBuilder append(java.lang.String)>("     escapeComments: ");	$r8 = virtualinvoke $r7.<java.lang.StringBuilder: java.lang.StringBuilder append(java.lang.String)>(r26);	$r9 = virtualinvoke $r8.<java.lang.StringBuilder: java.lang.String toString()>();	specialinvoke r0.<cn.hutool.http.HTMLFilter: void debug(java.lang.String)>($r9);	r27 = specialinvoke r0.<cn.hutool.http.HTMLFilter: java.lang.String balanceHTML(java.lang.String)>(r26);	$r10 = new java.lang.StringBuilder;	specialinvoke $r10.<java.lang.StringBuilder: void <init>()>();	$r11 = virtualinvoke $r10.<java.lang.StringBuilder: java.lang.StringBuilder append(java.lang.String)>("        balanceHTML: ");	$r12 = virtualinvoke $r11.<java.lang.StringBuilder: java.lang.StringBuilder append(java.lang.String)>(r27);	$r13 = virtualinvoke $r12.<java.lang.StringBuilder: java.lang.String toString()>();	specialinvoke r0.<cn.hutool.http.HTMLFilter: void debug(java.lang.String)>($r13);	r28 = specialinvoke r0.<cn.hutool.http.HTMLFilter: java.lang.String checkTags(java.lang.String)>(r27);	$r14 = new java.lang.StringBuilder;	specialinvoke $r14.<java.lang.StringBuilder: void <init>()>();	$r15 = virtualinvoke $r14.<java.lang.StringBuilder: java.lang.StringBuilder append(java.lang.String)>("          checkTags: ");	$r16 = virtualinvoke $r15.<java.lang.StringBuilder: java.lang.StringBuilder append(java.lang.String)>(r28);	$r17 = virtualinvoke $r16.<java.lang.StringBuilder: java.lang.String toString()>();	specialinvoke r0.<cn.hutool.http.HTMLFilter: void debug(java.lang.String)>($r17);	r29 = specialinvoke r0.<cn.hutool.http.HTMLFilter: java.lang.String processRemoveBlanks(java.lang.String)>(r28);	$r18 = new java.lang.StringBuilder;	specialinvoke $r18.<java.lang.StringBuilder: void <init>()>();	$r19 = virtualinvoke $r18.<java.lang.StringBuilder: java.lang.StringBuilder append(java.lang.String)>("processRemoveBlanks: ");	$r20 = virtualinvoke $r19.<java.lang.StringBuilder: java.lang.StringBuilder append(java.lang.String)>(r29);	$r21 = virtualinvoke $r20.<java.lang.StringBuilder: java.lang.String toString()>();	specialinvoke r0.<cn.hutool.http.HTMLFilter: void debug(java.lang.String)>($r21);	r30 = specialinvoke r0.<cn.hutool.http.HTMLFilter: java.lang.String validateEntities(java.lang.String)>(r29);	$r22 = new java.lang.StringBuilder;	specialinvoke $r22.<java.lang.StringBuilder: void <init>()>();	$r23 = virtualinvoke $r22.<java.lang.StringBuilder: java.lang.StringBuilder append(java.lang.String)>("    validateEntites: ");	$r24 = virtualinvoke $r23.<java.lang.StringBuilder: java.lang.StringBuilder append(java.lang.String)>(r30);	$r25 = virtualinvoke $r24.<java.lang.StringBuilder: java.lang.String toString()>();	specialinvoke r0.<cn.hutool.http.HTMLFilter: void debug(java.lang.String)>($r25);	specialinvoke r0.<cn.hutool.http.HTMLFilter: void debug(java.lang.String)>("************************************************\n\n");	return r30
;block_num 1